40
1 0 6
2 0 1
2 1 6
3 0 2
3 1 4
3 2 2
4 0 6
4 1 3
4 2 2
4 3 2
5 0 4
5 1 2
5 2 6
5 3 1
5 4 1
6 0 4
6 1 1
6 2 4
6 3 1
6 4 5
6 5 6
7 0 3
7 1 6
7 2 2
7 3 6
7 4 2
7 5 1
7 6 4
8 0 2
8 1 4
8 2 2
8 3 2
8 4 5
8 5 3
8 6 4
8 7 2
9 0 5
9 1 6
9 2 5
9 3 2
9 4 3
9 5 3
9 6 3
9 7 5
9 8 6
10 0 5
10 1 4
10 2 4
10 3 1
10 4 4
10 5 2
10 6 6
10 7 3
10 8 1
10 9 4
11 0 5
11 1 3
11 2 3
11 3 1
11 4 3
11 5 3
11 6 6
11 7 4
11 8 3
11 9 4
11 10 2
12 0 2
12 1 1
12 2 2
12 3 5
12 4 5
12 5 6
12 6 4
12 7 3
12 8 4
12 9 4
12 10 2
12 11 3
13 0 2
13 1 2
13 2 6
13 3 4
13 4 5
13 5 5
13 6 1
13 7 1
13 8 2
13 9 2
13 10 4
13 11 2
13 12 5
14 0 5
14 1 1
14 2 5
14 3 6
14 4 1
14 5 2
14 6 2
14 7 4
14 8 2
14 9 6
14 10 2
14 11 1
14 12 2
14 13 5
15 0 5
15 1 2
15 2 1
15 3 4
15 4 4
15 5 3
15 6 3
15 7 2
15 8 5
15 9 5
15 10 3
15 11 5
15 12 5
15 13 1
15 14 1
16 0 6
16 1 4
16 2 4
16 3 4
16 4 6
16 5 3
16 6 4
16 7 6
16 8 1
16 9 2
16 10 3
16 11 1
16 12 5
16 13 2
16 14 6
16 15 4
17 0 6
17 1 1
17 2 4
17 3 2
17 4 1
17 5 3
17 6 5
17 7 5
17 8 1
17 9 5
17 10 3
17 11 6
17 12 1
17 13 5
17 14 3
17 15 3
17 16 1
18 0 3
18 1 1
18 2 2
18 3 6
18 4 2
18 5 6
18 6 4
18 7 1
18 8 4
18 9 6
18 10 4
18 11 1
18 12 2
18 13 3
18 14 5
18 15 6
18 16 6
18 17 3
19 0 1
19 1 1
19 2 3
19 3 4
19 4 6
19 5 4
19 6 2
19 7 4
19 8 3
19 9 1
19 10 1
19 11 2
19 12 1
19 13 4
19 14 2
19 15 1
19 16 6
19 17 5
19 18 3
20 0 4
20 1 3
20 2 6
20 3 6
20 4 3
20 5 2
20 6 4
20 7 1
20 8 5
20 9 1
20 10 5
20 11 4
20 12 1
20 13 5
20 14 4
20 15 2
20 16 4
20 17 6
20 18 5
20 19 3
21 0 4
21 1 4
21 2 2
21 3 1
21 4 1
21 5 5
21 6 1
21 7 2
21 8 6
21 9 6
21 10 6
21 11 1
21 12 1
21 13 6
21 14 3
21 15 1
21 16 2
21 17 6
21 18 2
21 19 4
21 20 2
22 0 5
22 1 4
22 2 2
22 3 6
22 4 2
22 5 6
22 6 3
22 7 3
22 8 4
22 9 2
22 10 5
22 11 5
22 12 3
22 13 4
22 14 1
22 15 1
22 16 4
22 17 5
22 18 4
22 19 5
22 20 5
22 21 4
23 0 3
23 1 3
23 2 1
23 3 3
23 4 3
23 5 6
23 6 4
23 7 6
23 8 1
23 9 1
23 10 4
23 11 2
23 12 2
23 13 5
23 14 6
23 15 3
23 16 3
23 17 4
23 18 5
23 19 3
23 20 1
23 21 3
23 22 2
24 0 6
24 1 4
24 2 5
24 3 4
24 4 1
24 5 5
24 6 5
24 7 6
24 8 1
24 9 5
24 10 3
24 11 2
24 12 3
24 13 2
24 14 3
24 15 2
24 16 1
24 17 3
24 18 1
24 19 2
24 20 6
24 21 2
24 22 6
24 23 5
25 0 4
25 1 6
25 2 4
25 3 3
25 4 6
25 5 1
25 6 6
25 7 5
25 8 5
25 9 2
25 10 3
25 11 3
25 12 3
25 13 3
25 14 5
25 15 4
25 16 4
25 17 1
25 18 5
25 19 2
25 20 5
25 21 5
25 22 3
25 23 4
25 24 3
26 0 6
26 1 4
26 2 5
26 3 5
26 4 4
26 5 2
26 6 3
26 7 2
26 8 6
26 9 1
26 10 3
26 11 4
26 12 3
26 13 1
26 14 4
26 15 1
26 16 6
26 17 6
26 18 2
26 19 5
26 20 3
26 21 1
26 22 6
26 23 2
26 24 1
26 25 5
27 0 4
27 1 6
27 2 3
27 3 1
27 4 6
27 5 4
27 6 2
27 7 4
27 8 2
27 9 4
27 10 5
27 11 3
27 12 5
27 13 2
27 14 4
27 15 4
27 16 3
27 17 2
27 18 4
27 19 5
27 20 5
27 21 5
27 22 6
27 23 1
27 24 6
27 25 2
27 26 4
28 0 2
28 1 5
28 2 2
28 3 1
28 4 2
28 5 5
28 6 6
28 7 1
28 8 5
28 9 1
28 10 4
28 11 6
28 12 5
28 13 5
28 14 3
28 15 2
28 16 5
28 17 3
28 18 4
28 19 1
28 20 5
28 21 4
28 22 5
28 23 3
28 24 3
28 25 2
28 26 1
28 27 5
29 0 1
29 1 2
29 2 1
29 3 4
29 4 1
29 5 2
29 6 4
29 7 2
29 8 4
29 9 3
29 10 4
29 11 1
29 12 2
29 13 1
29 14 5
29 15 1
29 16 3
29 17 5
29 18 3
29 19 3
29 20 6
29 21 3
29 22 4
29 23 1
29 24 1
29 25 2
29 26 3
29 27 6
29 28 6
30 0 3
30 1 5
30 2 1
30 3 2
30 4 2
30 5 5
30 6 1
30 7 4
30 8 5
30 9 6
30 10 6
30 11 6
30 12 2
30 13 1
30 14 2
30 15 2
30 16 1
30 17 1
30 18 6
30 19 6
30 20 1
30 21 3
30 22 6
30 23 5
30 24 3
30 25 6
30 26 1
30 27 6
30 28 4
30 29 2
31 0 4
31 1 1
31 2 4
31 3 3
31 4 6
31 5 6
31 6 4
31 7 1
31 8 3
31 9 1
31 10 5
31 11 6
31 12 4
31 13 2
31 14 4
31 15 6
31 16 5
31 17 2
31 18 2
31 19 3
31 20 4
31 21 2
31 22 5
31 23 1
31 24 2
31 25 3
31 26 4
31 27 3
31 28 5
31 29 3
31 30 2
32 0 2
32 1 3
32 2 5
32 3 4
32 4 3
32 5 4
32 6 4
32 7 1
32 8 5
32 9 3
32 10 6
32 11 5
32 12 4
32 13 2
32 14 5
32 15 5
32 16 3
32 17 5
32 18 4
32 19 6
32 20 4
32 21 2
32 22 6
32 23 5
32 24 3
32 25 3
32 26 3
32 27 2
32 28 2
32 29 6
32 30 4
32 31 5
33 0 6
33 1 5
33 2 2
33 3 6
33 4 6
33 5 2
33 6 6
33 7 2
33 8 6
33 9 2
33 10 4
33 11 4
33 12 1
33 13 2
33 14 6
33 15 2
33 16 1
33 17 4
33 18 6
33 19 6
33 20 1
33 21 3
33 22 1
33 23 6
33 24 6
33 25 1
33 26 3
33 27 3
33 28 6
33 29 1
33 30 6
33 31 4
33 32 3
34 0 2
34 1 6
34 2 4
34 3 4
34 4 4
34 5 1
34 6 6
34 7 6
34 8 5
34 9 1
34 10 2
34 11 5
34 12 5
34 13 4
34 14 2
34 15 4
34 16 1
34 17 1
34 18 4
34 19 1
34 20 2
34 21 3
34 22 1
34 23 3
34 24 4
34 25 4
34 26 4
34 27 2
34 28 4
34 29 6
34 30 2
34 31 6
34 32 2
34 33 6
35 0 4
35 1 2
35 2 3
35 3 4
35 4 2
35 5 1
35 6 6
35 7 3
35 8 4
35 9 6
35 10 1
35 11 3
35 12 5
35 13 6
35 14 2
35 15 3
35 16 6
35 17 6
35 18 1
35 19 6
35 20 1
35 21 3
35 22 1
35 23 2
35 24 4
35 25 1
35 26 1
35 27 4
35 28 1
35 29 1
35 30 4
35 31 3
35 32 5
35 33 5
35 34 5
36 0 4
36 1 6
36 2 6
36 3 5
36 4 4
36 5 6
36 6 4
36 7 6
36 8 2
36 9 2
36 10 5
36 11 5
36 12 6
36 13 5
36 14 2
36 15 3
36 16 4
36 17 2
36 18 2
36 19 5
36 20 4
36 21 6
36 22 4
36 23 5
36 24 6
36 25 3
36 26 2
36 27 3
36 28 4
36 29 4
36 30 3
36 31 4
36 32 3
36 33 2
36 34 1
36 35 4
37 0 1
37 1 2
37 2 3
37 3 4
37 4 2
37 5 2
37 6 2
37 7 5
37 8 4
37 9 1
37 10 1
37 11 3
37 12 3
37 13 1
37 14 1
37 15 5
37 16 3
37 17 2
37 18 4
37 19 1
37 20 3
37 21 3
37 22 3
37 23 5
37 24 2
37 25 2
37 26 4
37 27 4
37 28 1
37 29 2
37 30 2
37 31 2
37 32 3
37 33 6
37 34 2
37 35 4
37 36 4
38 0 5
38 1 4
38 2 1
38 3 4
38 4 5
38 5 4
38 6 2
38 7 2
38 8 2
38 9 3
38 10 5
38 11 1
38 12 4
38 13 2
38 14 2
38 15 2
38 16 6
38 17 2
38 18 5
38 19 4
38 20 6
38 21 6
38 22 4
38 23 6
38 24 6
38 25 3
38 26 3
38 27 6
38 28 2
38 29 2
38 30 6
38 31 3
38 32 3
38 33 5
38 34 6
38 35 2
38 36 2
38 37 2
39 0 6
39 1 1
39 2 4
39 3 6
39 4 6
39 5 3
39 6 3
39 7 6
39 8 2
39 9 4
39 10 6
39 11 1
39 12 2
39 13 4
39 14 1
39 15 6
39 16 4
39 17 4
39 18 2
39 19 5
39 20 2
39 21 3
39 22 5
39 23 5
39 24 2
39 25 3
39 26 5
39 27 6
39 28 5
39 29 2
39 30 4
39 31 4
39 32 6
39 33 5
39 34 2
39 35 5
39 36 6
39 37 5
39 38 2
